H atom only                             
   1.00000000000000     
    10.2313750980900924    0.0000000000000000    0.0000000000000000
    -5.1156875490450462    8.8606307506782329    0.0000000000000000
     0.0000000000000000    0.0000000000000000   37.4111824050621280
   H 
     1
Selective dynamics
Direct
  0.0000000000000000  0.0000000000000000  0.0000000000000000   T   T   T
 
  0.00000000E+00  0.00000000E+00  0.00000000E+00
