 hematite with methane                  
   1.00000000000000     
    10.2313750980900995    0.0000000000000000    0.0000000000000000
    -5.1156875490450497    8.8606307506782294    0.0000000000000000
     0.0000000000000000    0.0000000000000000   37.4111824050620996
   Fe   O    C    H 
    48    72     1     4
Direct
  0.0347680982137783  0.0407806383708270  0.1389158276947941
  0.0350196374527765  0.0413498138252690  0.2472020603405858
  0.0345493039978523  0.0406775265728180  0.0631426201795902
  0.0382030344736415  0.0426151542557437  0.3229833803921087
  0.3680431862891956  0.2090929232948039  0.2628168824077119
  0.3690366126168745  0.2006974874390005  0.3626853999671006
  0.3680626382823263  0.2074451959336464  0.1850497969127417
  0.3678945059570932  0.2073639443504706  0.0728393343370153
  0.2011682765148981  0.3739386470349542  0.0323785375235620
  0.2012755742280086  0.3738797906527881  0.1239478402567375
  0.1975075984821388  0.3727802876912374  0.3129644733169879
  0.2014549574966743  0.3738844237204378  0.2012921585989504
  0.5346015957047909  0.0410151701095115  0.1387745968198561
  0.5332027448750274  0.0425661787958144  0.2475501331855178
  0.5346035610741692  0.0407015898722916  0.0630697117149375
  0.5352605127882687  0.0440806293282302  0.3236520219013830
  0.8663262260906457  0.2054694054735279  0.2622064497092271
  0.8691799363361292  0.2079079656623662  0.3554837260589986
  0.8681503510182741  0.2075368043999892  0.1848512830722418
  0.8678828445283043  0.2073313184550945  0.0728283981885594
  0.7011996672025446  0.3739873754627832  0.0323269977871643
  0.7012802925034747  0.3740145733664014  0.1239656530565880
  0.7003117199471994  0.3733425389120276  0.3135885315041555
  0.7014718106403324  0.3741486682082880  0.2011330165414372
  0.0343842882026701  0.5404063233448693  0.1387474815339731
  0.0329514261129242  0.5381568271361107  0.2475806293585378
  0.0346375914474178  0.5407491347863386  0.0630569668589524
  0.0335185927154658  0.5405532659623187  0.3236792789688347
  0.3682843122136947  0.7076285373508610  0.2599697321542260
  0.3694834101439777  0.7090488768102130  0.3380584297709970
  0.3680343711862296  0.7074920005712538  0.1839644482807117
  0.3679383346445320  0.7073664679883157  0.0727764803818901
  0.2011906389582620  0.8739650514859815  0.0323781457050457
  0.2012577037048965  0.8740962744563846  0.1239774043218684
  0.2037543261693839  0.8788451420764255  0.3137511297516095
  0.2012931547613871  0.8744865320832209  0.2013587981663534
  0.5350237690162338  0.5406661975797771  0.1387593337190336
  0.5377665593164767  0.5418184586789151  0.2472252897077493
  0.5345901411459364  0.5407079046524417  0.0630537649235542
  0.5398860258650946  0.5433732220774540  0.3228729141968799
  0.8707744141598275  0.7086308857537792  0.2623483369903821
  0.8695887973445451  0.7090924245021205  0.3557099273039680
  0.8680816681421895  0.7074889478734728  0.1848740841914718
  0.8679663967078216  0.7073911075465558  0.0728307614066233
  0.7011778874879082  0.8739489462229041  0.0323647858072236
  0.7014117396378177  0.8740712403308295  0.1239528135716505
  0.7048960160956599  0.8753072526656770  0.3138155892363794
  0.7019455710366307  0.8746085056267674  0.2013289509796821
  0.1900252826500163  0.0407247118659452  0.0998953980217827
  0.3808428662639268  0.0415528033908642  0.2855604346601720
  0.0346311627119148  0.1961582876111886  0.0998581656997432
  0.0331177607275090  0.3849079804252188  0.2858349434863211
  0.3790549185216154  0.3852311751953491  0.0997772236427547
  0.1894306528469422  0.1979661769072610  0.2858806362283239
  0.0200548592821669  0.2066886546765064  0.2237095656540737
  0.2076676896074985  0.2014115681816283  0.0386071000400589
  0.3692081717799816  0.3623924940048793  0.2242152191605282
  0.3736304603228144  0.0530558725176104  0.0386303816392686
  0.2152892106142992  0.0558081257178536  0.2238534956124506
  0.0221324794510404  0.3674697126765805  0.0385918882840861
  0.3628075194733228  0.3795658282435362  0.3478642693492663
  0.0484797254766992  0.3745595772615361  0.1620808483027059
  0.1986151232476916  0.0313985844346968  0.3472896239755527
  0.2007890518823597  0.2208381778098938  0.1622753501558096
  0.0475186706357054  0.2143840296558940  0.3476269369485757
  0.3547582602957070  0.0269866944684923  0.1621849329226032
  0.6900916685944427  0.0406653923075522  0.0998134836582813
  0.8799384310779206  0.0406309791637463  0.2861379962158604
  0.5347913298714608  0.1963192763230093  0.0998141707989063
  0.5357933744394515  0.3885853879687433  0.2861452970606623
  0.8789690404044783  0.3852786044905280  0.0998006404068985
  0.6885952352695972  0.1953609665677730  0.2861298418353515
  0.5207305501543997  0.2079710261603840  0.2238819599158575
  0.7077478035390020  0.2014959433120983  0.0385657605700072
  0.8679549059457901  0.3599509471471332  0.2237907945560162
  0.8736549339149183  0.0529810817559169  0.0386382509474272
  0.7130208378614821  0.0534539592906128  0.2242800853413209
  0.5221912026429192  0.3675103199420431  0.0385806190689069
  0.8607319388948353  0.3786035572739424  0.3476702677995213
  0.5486392130970457  0.3747718251727042  0.1621858079146342
  0.6980509373885042  0.0308551510136430  0.3472442884018635
  0.7005870723489463  0.2205284907073203  0.1621933790629329
  0.5465678121871906  0.2155103525034147  0.3477230848451945
  0.8545319555362961  0.0266919828099839  0.1622397385671024
  0.1900597037957427  0.5405284930469668  0.0997923380059571
  0.3783027217136420  0.5451205668341992  0.2873535182064636
  0.0347924554294712  0.6963651086821947  0.0997663448986393
  0.0367278169035593  0.8872165632440046  0.2860896198124923
  0.3789441434557166  0.8852800242154029  0.0997812898810261
  0.1968208951898835  0.6979494448012147  0.2874695173945222
  0.0221755257024346  0.7067020704970709  0.2242424694919753
  0.2077844317272190  0.7014381583809977  0.0385243094032130
  0.3695552506132013  0.8614930097822611  0.2235117483848294
  0.3737124922840578  0.5530157017967854  0.0385754675254637
  0.2138160018985665  0.5545574327769609  0.2235906140195279
  0.0222156139514237  0.8675826740571433  0.0386176374331641
  0.3619287510089909  0.8820214528373882  0.3470811827083142
  0.0488282800808320  0.8747216956936811  0.1622502479975995
  0.1959876750329579  0.5276357562978836  0.3466895190694355
  0.2004677465091218  0.7206563648529659  0.1620044067931282
  0.0465330858490642  0.7149544331044927  0.3474038545083569
  0.3547090348705097  0.5265833892197733  0.1619912623556500
  0.6900245633822295  0.5405724080539712  0.0998388265748802
  0.8807355528773387  0.5406608929282832  0.2862102678303389
  0.5348805662222366  0.6963922175302740  0.0997531104350969
  0.5298571940808396  0.8783694916561195  0.2876585787193811
  0.8791668303180558  0.8852605492254449  0.0998656793613717
  0.6919493675576832  0.6968611682073295  0.2858874740310320
  0.5210636395333363  0.7061349642766130  0.2235104980405149
  0.7078442411843497  0.7014899558224390  0.0385684798833020
  0.8694056975082791  0.8609016427418996  0.2237897317539731
  0.8736642104631294  0.5530233534139836  0.0386152523357350
  0.7161277383982976  0.5553249515785991  0.2237556466891528
  0.5221588188790749  0.8675496273556054  0.0385577961082327
  0.8646486142947915  0.8813962335251025  0.3476399856129785
  0.5488537908794296  0.8748940415617515  0.1619712936799280
  0.6984290632990955  0.5300857506328596  0.3477372750078048
  0.7008461264228324  0.7206325003198712  0.1621318174712832
  0.5493816187503987  0.7143687438872335  0.3469443967008460
  0.8548881220975297  0.5268880652054314  0.1621614978373853
  0.3516800317280547  0.2922867404027190  0.4148472777153749
  0.4486916848440529  0.2898651089724727  0.4268523582094525
  0.3537266321848159  0.3627583769014141  0.3803556398853837
  0.2452839893986664  0.1968681718499348  0.4245226433333675
  0.3569156298750747  0.3960659662816959  0.4249184938956494
 
             NaN             NaN             NaN
             NaN             NaN             NaN
             NaN             NaN             NaN
             NaN             NaN             NaN
             NaN             NaN             NaN
             NaN             NaN             NaN
             NaN             NaN             NaN
             NaN             NaN             NaN
             NaN             NaN             NaN
             NaN             NaN             NaN
             NaN             NaN             NaN
             NaN             NaN             NaN
             NaN             NaN             NaN
             NaN             NaN             NaN
             NaN             NaN             NaN
             NaN             NaN             NaN
             NaN             NaN             NaN
             NaN             NaN             NaN
             NaN             NaN             NaN
             NaN             NaN             NaN
             NaN             NaN             NaN
             NaN             NaN             NaN
             NaN             NaN             NaN
             NaN             NaN             NaN
             NaN             NaN             NaN
             NaN             NaN             NaN
             NaN             NaN             NaN
             NaN             NaN             NaN
             NaN             NaN             NaN
             NaN             NaN             NaN
             NaN             NaN             NaN
             NaN             NaN             NaN
             NaN             NaN             NaN
             NaN             NaN             NaN
             NaN             NaN             NaN
             NaN             NaN             NaN
             NaN             NaN             NaN
             NaN             NaN             NaN
             NaN             NaN             NaN
             NaN             NaN             NaN
             NaN             NaN             NaN
             NaN             NaN             NaN
             NaN             NaN             NaN
             NaN             NaN             NaN
             NaN             NaN             NaN
             NaN             NaN             NaN
             NaN             NaN             NaN
             NaN             NaN             NaN
             NaN             NaN             NaN
             NaN             NaN             NaN
             NaN             NaN             NaN
             NaN             NaN             NaN
             NaN             NaN             NaN
             NaN             NaN             NaN
             NaN             NaN             NaN
             NaN             NaN             NaN
             NaN             NaN             NaN
             NaN             NaN             NaN
             NaN             NaN             NaN
             NaN             NaN             NaN
             NaN             NaN             NaN
             NaN             NaN             NaN
             NaN             NaN             NaN
             NaN             NaN             NaN
             NaN             NaN             NaN
             NaN             NaN             NaN
             NaN             NaN             NaN
             NaN             NaN             NaN
             NaN             NaN             NaN
             NaN             NaN             NaN
             NaN             NaN             NaN
             NaN             NaN             NaN
             NaN             NaN             NaN
             NaN             NaN             NaN
             NaN             NaN             NaN
             NaN             NaN             NaN
             NaN             NaN             NaN
             NaN             NaN             NaN
             NaN             NaN             NaN
             NaN             NaN             NaN
             NaN             NaN             NaN
             NaN             NaN             NaN
             NaN             NaN             NaN
             NaN             NaN             NaN
             NaN             NaN             NaN
             NaN             NaN             NaN
             NaN             NaN             NaN
             NaN             NaN             NaN
             NaN             NaN             NaN
             NaN             NaN             NaN
             NaN             NaN             NaN
             NaN             NaN             NaN
             NaN             NaN             NaN
             NaN             NaN             NaN
             NaN             NaN             NaN
             NaN             NaN             NaN
             NaN             NaN             NaN
             NaN             NaN             NaN
             NaN             NaN             NaN
             NaN             NaN             NaN
             NaN             NaN             NaN
             NaN             NaN             NaN
             NaN             NaN             NaN
             NaN             NaN             NaN
             NaN             NaN             NaN
             NaN             NaN             NaN
             NaN             NaN             NaN
             NaN             NaN             NaN
             NaN             NaN             NaN
             NaN             NaN             NaN
             NaN             NaN             NaN
             NaN             NaN             NaN
             NaN             NaN             NaN
             NaN             NaN             NaN
             NaN             NaN             NaN
             NaN             NaN             NaN
             NaN             NaN             NaN
             NaN             NaN             NaN
             NaN             NaN             NaN
             NaN             NaN             NaN
             NaN             NaN             NaN
             NaN             NaN             NaN
             NaN             NaN             NaN
             NaN             NaN             NaN
             NaN             NaN             NaN
