ch3 only in larger cell                 
   1.00000000000000     
    10.2313750980900924    0.0000000000000000    0.0000000000000000
    -5.1156875490450462    8.8606307506782329    0.0000000000000000
     0.0000000000000000    0.0000000000000000   37.4111824050621280
   C    H 
     1     3
Direct
  0.0281385006177715  0.0569811077203042  0.0059697713828371
  0.9133573501803340  0.9736745394626993  0.0133107039726070
  0.0534084397274981  0.1676619283103378  0.9965758555463893
  0.1176801725042722  0.0296823000059661  0.0081741343816830
 
  0.00000000E+00  0.00000000E+00  0.00000000E+00
  0.00000000E+00  0.00000000E+00  0.00000000E+00
  0.00000000E+00  0.00000000E+00  0.00000000E+00
  0.00000000E+00  0.00000000E+00  0.00000000E+00
