methane in vacuum                       
   1.00000000000000     
    10.2313750980900924    0.0000000000000000    0.0000000000000000
    -5.1156875490450462    8.8606307506782329    0.0000000000000000
     0.0000000000000000    0.0000000000000000   37.4111824050621280
   H    C 
     4     1
Direct
  0.9433018584717843  0.0531314182747948  0.9999792163971861
  0.8937598281393093  0.8587685797036428  0.9999792265455127
  0.0567749317499135  0.9948059661915067  0.9759949268964050
  0.0571681874578189  0.9949164108110082  0.0238320319608292
  0.9877471796468457  0.9753949829631594  0.9996799986842414
 
  0.00000000E+00  0.00000000E+00  0.00000000E+00
  0.00000000E+00  0.00000000E+00  0.00000000E+00
  0.00000000E+00  0.00000000E+00  0.00000000E+00
  0.00000000E+00  0.00000000E+00  0.00000000E+00
  0.00000000E+00  0.00000000E+00  0.00000000E+00
