 Fe2O3 Fe terminated slab, 24 A vacuum l
   1.01636004000000     
    10.0666837049178852    0.0000000000000000    0.0000000000000000
    -5.0333418524589426    8.7180038204050874    0.0000000000000000
     0.0000000000000000    0.0000000000000000   36.8089857607753430
   Fe   O 
    48    72
Selective dynamics
Direct
  0.0266204429694952  0.0444394676731648  0.1388339916385561   T   T   T
  0.0270862002204595  0.0447545784437082  0.2472344347620421   T   T   T
  0.0261208104936230  0.0439839245637685  0.0631151023189318   T   T   T
  0.0271240915237740  0.0447784936663851  0.3229625337840218   T   T   T
  0.3604961252031416  0.2114865053299582  0.2620752966571018   T   T   T
  0.3604747993864237  0.2114764128762161  0.3536813609850569   T   T   T
  0.3600803005191224  0.2112115007274227  0.1847736747934050   T   T   T
  0.3595506191939108  0.2107193313331024  0.0728349050361103   T   T   T
  0.1927710468887014  0.3772123257527085  0.0323275627266639   T   T   T
  0.1931841133362155  0.3776783173297602  0.1239892738968251   T   T   T
  0.1938078563132990  0.3781132488756924  0.3132191679944469   T   T   T
  0.1935601657726238  0.3779160101531573  0.2012883483813823   T   T   T
  0.5266204429694952  0.0444394676731648  0.1388339916385561   T   T   T
  0.5270862002204595  0.0447545784437082  0.2472344347620421   T   T   T
  0.5261208104936230  0.0439839245637685  0.0631151023189318   T   T   T
  0.5271240915237740  0.0447784936663851  0.3229625337840218   T   T   T
  0.8604961252031416  0.2114865053299582  0.2620752966571018   T   T   T
  0.8604747993864237  0.2114764128762161  0.3536813609850569   T   T   T
  0.8600803005191224  0.2112115007274227  0.1847736747934050   T   T   T
  0.8595506191939108  0.2107193313331024  0.0728349050361103   T   T   T
  0.6927710468887014  0.3772123257527085  0.0323275627266639   T   T   T
  0.6931841133362155  0.3776783173297602  0.1239892738968251   T   T   T
  0.6938078563132990  0.3781132488756924  0.3132191679944469   T   T   T
  0.6935601657726238  0.3779160101531573  0.2012883483813823   T   T   T
  0.0266204429694952  0.5444394676731648  0.1388339916385561   T   T   T
  0.0270862002204595  0.5447545784437153  0.2472344347620421   T   T   T
  0.0261208104936230  0.5439839245637614  0.0631151023189318   T   T   T
  0.0271240915237740  0.5447784936663851  0.3229625337840218   T   T   T
  0.3604961252031416  0.7114865053299582  0.2620752966571018   T   T   T
  0.3604747993864237  0.7114764128762161  0.3536813609850569   T   T   T
  0.3600803005191224  0.7112115007274227  0.1847736747934050   T   T   T
  0.3595506191939108  0.7107193313331024  0.0728349050361103   T   T   T
  0.1927710468887014  0.8772123257527085  0.0323275627266639   T   T   T
  0.1931841133362155  0.8776783173297602  0.1239892738968251   T   T   T
  0.1938078563132990  0.8781132488756924  0.3132191679944469   T   T   T
  0.1935601657726238  0.8779160101531573  0.2012883483813823   T   T   T
  0.5266204429694952  0.5444394676731648  0.1388339916385561   T   T   T
  0.5270862002204595  0.5447545784437153  0.2472344347620421   T   T   T
  0.5261208104936230  0.5439839245637614  0.0631151023189318   T   T   T
  0.5271240915237740  0.5447784936663851  0.3229625337840218   T   T   T
  0.8604961252031416  0.7114865053299582  0.2620752966571018   T   T   T
  0.8604747993864237  0.7114764128762161  0.3536813609850569   T   T   T
  0.8600803005191224  0.7112115007274227  0.1847736747934050   T   T   T
  0.8595506191939108  0.7107193313331024  0.0728349050361103   T   T   T
  0.6927710468887014  0.8772123257527085  0.0323275627266639   T   T   T
  0.6931841133362155  0.8776783173297602  0.1239892738968251   T   T   T
  0.6938078563132990  0.8781132488756924  0.3132191679944469   T   T   T
  0.6935601657726238  0.8779160101531573  0.2012883483813823   T   T   T
  0.1817386276756565  0.0440461666530183  0.0998398119513766   T   T   T
  0.3717050602532836  0.0448638801732173  0.2862184505619112   T   T   T
  0.0264543994507065  0.1997251460149840  0.0998561600111714   T   T   T
  0.0270105677184986  0.3891626212571992  0.2862279574289701   T   T   T
  0.3707758761212645  0.3886731835945128  0.0998376476383172   T   T   T
  0.1826366758428009  0.2001728481315865  0.2862085988410499   T   T   T
  0.0129193459029153  0.2105705598633492  0.2238778270246868   T   T   T
  0.1992578386011630  0.2046738351066821  0.0385801146920102   T   T   T
  0.3610208844416931  0.3647046515576307  0.2238774186691117   T   T   T
  0.3652508957801430  0.0562495376580543  0.0386152024129416   T   T   T
  0.2069578184901957  0.0586097529545953  0.2238882756936462   T   T   T
  0.0137628365523170  0.3707200641734900  0.0386157792432300   T   T   T
  0.3538419120206626  0.3839514951878229  0.3474586736759449   T   T   T
  0.0406487684996648  0.3784377426698171  0.1621699686258111   T   T   T
  0.1879504618413463  0.0324273028494986  0.3474512811099117   T   T   T
  0.1926662153805410  0.2244188819791049  0.1621748595048373   T   T   T
  0.0395006983859290  0.2179486466182681  0.3474550355644652   T   T   T
  0.3467509908663757  0.0304897771884072  0.1621945123986919   T   T   T
  0.6817386276756565  0.0440461666530183  0.0998398119513766   T   T   T
  0.8717050602532908  0.0448638801732173  0.2862184505619112   T   T   T
  0.5264543994506994  0.1997251460149840  0.0998561600111714   T   T   T
  0.5270105677184915  0.3891626212571992  0.2862279574289701   T   T   T
  0.8707758761212574  0.3886731835945128  0.0998376476383172   T   T   T
  0.6826366758428009  0.2001728481315865  0.2862085988410499   T   T   T
  0.5129193459029153  0.2105705598633492  0.2238778270246868   T   T   T
  0.6992578386011630  0.2046738351066821  0.0385801146920102   T   T   T
  0.8610208844416860  0.3647046515576307  0.2238774186691117   T   T   T
  0.8652508957801430  0.0562495376580543  0.0386152024129416   T   T   T
  0.7069578184901957  0.0586097529545953  0.2238882756936462   T   T   T
  0.5137628365523241  0.3707200641734900  0.0386157792432300   T   T   T
  0.8538419120206626  0.3839514951878229  0.3474586736759449   T   T   T
  0.5406487684996719  0.3784377426698171  0.1621699686258111   T   T   T
  0.6879504618413463  0.0324273028494986  0.3474512811099117   T   T   T
  0.6926662153805410  0.2244188819791049  0.1621748595048373   T   T   T
  0.5395006983859290  0.2179486466182681  0.3474550355644652   T   T   T
  0.8467509908663686  0.0304897771884072  0.1621945123986919   T   T   T
  0.1817386276756565  0.5440461666530183  0.0998398119513766   T   T   T
  0.3717050602532836  0.5448638801732173  0.2862184505619112   T   T   T
  0.0264543994507065  0.6997251460149911  0.0998561600111714   T   T   T
  0.0270105677184986  0.8891626212572064  0.2862279574289701   T   T   T
  0.3707758761212645  0.8886731835945128  0.0998376476383172   T   T   T
  0.1826366758428009  0.7001728481315865  0.2862085988410499   T   T   T
  0.0129193459029153  0.7105705598633492  0.2238778270246868   T   T   T
  0.1992578386011630  0.7046738351066821  0.0385801146920102   T   T   T
  0.3610208844416931  0.8647046515576307  0.2238774186691117   T   T   T
  0.3652508957801430  0.5562495376580543  0.0386152024129416   T   T   T
  0.2069578184901957  0.5586097529545953  0.2238882756936462   T   T   T
  0.0137628365523170  0.8707200641734900  0.0386157792432300   T   T   T
  0.3538419120206626  0.8839514951878229  0.3474586736759449   T   T   T
  0.0406487684996648  0.8784377426698171  0.1621699686258111   T   T   T
  0.1879504618413463  0.5324273028494986  0.3474512811099117   T   T   T
  0.1926662153805410  0.7244188819791120  0.1621748595048373   T   T   T
  0.0395006983859290  0.7179486466182681  0.3474550355644652   T   T   T
  0.3467509908663757  0.5304897771884072  0.1621945123986919   T   T   T
  0.6817386276756565  0.5440461666530183  0.0998398119513766   T   T   T
  0.8717050602532908  0.5448638801732173  0.2862184505619112   T   T   T
  0.5264543994506994  0.6997251460149911  0.0998561600111714   T   T   T
  0.5270105677184915  0.8891626212572064  0.2862279574289701   T   T   T
  0.8707758761212574  0.8886731835945128  0.0998376476383172   T   T   T
  0.6826366758428009  0.7001728481315865  0.2862085988410499   T   T   T
  0.5129193459029153  0.7105705598633492  0.2238778270246868   T   T   T
  0.6992578386011630  0.7046738351066821  0.0385801146920102   T   T   T
  0.8610208844416860  0.8647046515576307  0.2238774186691117   T   T   T
  0.8652508957801430  0.5562495376580543  0.0386152024129416   T   T   T
  0.7069578184901957  0.5586097529545953  0.2238882756936462   T   T   T
  0.5137628365523241  0.8707200641734900  0.0386157792432300   T   T   T
  0.8538419120206626  0.8839514951878229  0.3474586736759449   T   T   T
  0.5406487684996719  0.8784377426698171  0.1621699686258111   T   T   T
  0.6879504618413463  0.5324273028494986  0.3474512811099117   T   T   T
  0.6926662153805410  0.7244188819791120  0.1621748595048373   T   T   T
  0.5395006983859290  0.7179486466182681  0.3474550355644652   T   T   T
  0.8467509908663686  0.5304897771884072  0.1621945123986919   T   T   T
 
  0.00000000E+00  0.00000000E+00  0.00000000E+00
  0.00000000E+00  0.00000000E+00  0.00000000E+00
  0.00000000E+00  0.00000000E+00  0.00000000E+00
  0.00000000E+00  0.00000000E+00  0.00000000E+00
  0.00000000E+00  0.00000000E+00  0.00000000E+00
  0.00000000E+00  0.00000000E+00  0.00000000E+00
  0.00000000E+00  0.00000000E+00  0.00000000E+00
  0.00000000E+00  0.00000000E+00  0.00000000E+00
  0.00000000E+00  0.00000000E+00  0.00000000E+00
  0.00000000E+00  0.00000000E+00  0.00000000E+00
  0.00000000E+00  0.00000000E+00  0.00000000E+00
  0.00000000E+00  0.00000000E+00  0.00000000E+00
  0.00000000E+00  0.00000000E+00  0.00000000E+00
  0.00000000E+00  0.00000000E+00  0.00000000E+00
  0.00000000E+00  0.00000000E+00  0.00000000E+00
  0.00000000E+00  0.00000000E+00  0.00000000E+00
  0.00000000E+00  0.00000000E+00  0.00000000E+00
  0.00000000E+00  0.00000000E+00  0.00000000E+00
  0.00000000E+00  0.00000000E+00  0.00000000E+00
  0.00000000E+00  0.00000000E+00  0.00000000E+00
  0.00000000E+00  0.00000000E+00  0.00000000E+00
  0.00000000E+00  0.00000000E+00  0.00000000E+00
  0.00000000E+00  0.00000000E+00  0.00000000E+00
  0.00000000E+00  0.00000000E+00  0.00000000E+00
  0.00000000E+00  0.00000000E+00  0.00000000E+00
  0.00000000E+00  0.00000000E+00  0.00000000E+00
  0.00000000E+00  0.00000000E+00  0.00000000E+00
  0.00000000E+00  0.00000000E+00  0.00000000E+00
  0.00000000E+00  0.00000000E+00  0.00000000E+00
  0.00000000E+00  0.00000000E+00  0.00000000E+00
  0.00000000E+00  0.00000000E+00  0.00000000E+00
  0.00000000E+00  0.00000000E+00  0.00000000E+00
  0.00000000E+00  0.00000000E+00  0.00000000E+00
  0.00000000E+00  0.00000000E+00  0.00000000E+00
  0.00000000E+00  0.00000000E+00  0.00000000E+00
  0.00000000E+00  0.00000000E+00  0.00000000E+00
  0.00000000E+00  0.00000000E+00  0.00000000E+00
  0.00000000E+00  0.00000000E+00  0.00000000E+00
  0.00000000E+00  0.00000000E+00  0.00000000E+00
  0.00000000E+00  0.00000000E+00  0.00000000E+00
  0.00000000E+00  0.00000000E+00  0.00000000E+00
  0.00000000E+00  0.00000000E+00  0.00000000E+00
  0.00000000E+00  0.00000000E+00  0.00000000E+00
  0.00000000E+00  0.00000000E+00  0.00000000E+00
  0.00000000E+00  0.00000000E+00  0.00000000E+00
  0.00000000E+00  0.00000000E+00  0.00000000E+00
  0.00000000E+00  0.00000000E+00  0.00000000E+00
  0.00000000E+00  0.00000000E+00  0.00000000E+00
  0.00000000E+00  0.00000000E+00  0.00000000E+00
  0.00000000E+00  0.00000000E+00  0.00000000E+00
  0.00000000E+00  0.00000000E+00  0.00000000E+00
  0.00000000E+00  0.00000000E+00  0.00000000E+00
  0.00000000E+00  0.00000000E+00  0.00000000E+00
  0.00000000E+00  0.00000000E+00  0.00000000E+00
  0.00000000E+00  0.00000000E+00  0.00000000E+00
  0.00000000E+00  0.00000000E+00  0.00000000E+00
  0.00000000E+00  0.00000000E+00  0.00000000E+00
  0.00000000E+00  0.00000000E+00  0.00000000E+00
  0.00000000E+00  0.00000000E+00  0.00000000E+00
  0.00000000E+00  0.00000000E+00  0.00000000E+00
  0.00000000E+00  0.00000000E+00  0.00000000E+00
  0.00000000E+00  0.00000000E+00  0.00000000E+00
  0.00000000E+00  0.00000000E+00  0.00000000E+00
  0.00000000E+00  0.00000000E+00  0.00000000E+00
  0.00000000E+00  0.00000000E+00  0.00000000E+00
  0.00000000E+00  0.00000000E+00  0.00000000E+00
  0.00000000E+00  0.00000000E+00  0.00000000E+00
  0.00000000E+00  0.00000000E+00  0.00000000E+00
  0.00000000E+00  0.00000000E+00  0.00000000E+00
  0.00000000E+00  0.00000000E+00  0.00000000E+00
  0.00000000E+00  0.00000000E+00  0.00000000E+00
  0.00000000E+00  0.00000000E+00  0.00000000E+00
  0.00000000E+00  0.00000000E+00  0.00000000E+00
  0.00000000E+00  0.00000000E+00  0.00000000E+00
  0.00000000E+00  0.00000000E+00  0.00000000E+00
  0.00000000E+00  0.00000000E+00  0.00000000E+00
  0.00000000E+00  0.00000000E+00  0.00000000E+00
  0.00000000E+00  0.00000000E+00  0.00000000E+00
  0.00000000E+00  0.00000000E+00  0.00000000E+00
  0.00000000E+00  0.00000000E+00  0.00000000E+00
  0.00000000E+00  0.00000000E+00  0.00000000E+00
  0.00000000E+00  0.00000000E+00  0.00000000E+00
  0.00000000E+00  0.00000000E+00  0.00000000E+00
  0.00000000E+00  0.00000000E+00  0.00000000E+00
  0.00000000E+00  0.00000000E+00  0.00000000E+00
  0.00000000E+00  0.00000000E+00  0.00000000E+00
  0.00000000E+00  0.00000000E+00  0.00000000E+00
  0.00000000E+00  0.00000000E+00  0.00000000E+00
  0.00000000E+00  0.00000000E+00  0.00000000E+00
  0.00000000E+00  0.00000000E+00  0.00000000E+00
  0.00000000E+00  0.00000000E+00  0.00000000E+00
  0.00000000E+00  0.00000000E+00  0.00000000E+00
  0.00000000E+00  0.00000000E+00  0.00000000E+00
  0.00000000E+00  0.00000000E+00  0.00000000E+00
  0.00000000E+00  0.00000000E+00  0.00000000E+00
  0.00000000E+00  0.00000000E+00  0.00000000E+00
  0.00000000E+00  0.00000000E+00  0.00000000E+00
  0.00000000E+00  0.00000000E+00  0.00000000E+00
  0.00000000E+00  0.00000000E+00  0.00000000E+00
  0.00000000E+00  0.00000000E+00  0.00000000E+00
  0.00000000E+00  0.00000000E+00  0.00000000E+00
  0.00000000E+00  0.00000000E+00  0.00000000E+00
  0.00000000E+00  0.00000000E+00  0.00000000E+00
  0.00000000E+00  0.00000000E+00  0.00000000E+00
  0.00000000E+00  0.00000000E+00  0.00000000E+00
  0.00000000E+00  0.00000000E+00  0.00000000E+00
  0.00000000E+00  0.00000000E+00  0.00000000E+00
  0.00000000E+00  0.00000000E+00  0.00000000E+00
  0.00000000E+00  0.00000000E+00  0.00000000E+00
  0.00000000E+00  0.00000000E+00  0.00000000E+00
  0.00000000E+00  0.00000000E+00  0.00000000E+00
  0.00000000E+00  0.00000000E+00  0.00000000E+00
  0.00000000E+00  0.00000000E+00  0.00000000E+00
  0.00000000E+00  0.00000000E+00  0.00000000E+00
  0.00000000E+00  0.00000000E+00  0.00000000E+00
  0.00000000E+00  0.00000000E+00  0.00000000E+00
  0.00000000E+00  0.00000000E+00  0.00000000E+00
  0.00000000E+00  0.00000000E+00  0.00000000E+00
  0.00000000E+00  0.00000000E+00  0.00000000E+00
  0.00000000E+00  0.00000000E+00  0.00000000E+00
